85
363
63
0 2
0 6
0 13
0 20
0 33
0 39
0 46
0 47
0 53
1 5
1 12
1 44
1 52
2 6
2 14
2 15
2 16
2 17
2 39
2 46
2 47
3 4
3 10
3 11
3 43
3 49
3 55
3 59
3 70
4 10
4 11
4 41
4 45
4 48
4 50
4 51
5 8
5 9
5 12
5 21
5 23
5 24
5 28
5 30
5 33
5 44
5 52
5 64
6 14
6 15
6 16
6 17
6 22
6 29
6 35
6 36
6 37
6 39
6 46
6 47
7 10
7 18
7 65
8 9
8 33
9 20
9 22
9 26
9 33
9 58
9 68
9 71
10 11
10 18
10 65
11 12
11 31
12 31
12 44
12 52
13 20
13 33
13 53
14 15
14 16
14 17
14 47
15 16
15 17
15 27
15 38
15 47
16 17
16 27
16 38
16 47
16 59
16 60
16 61
16 76
17 22
17 23
17 29
17 35
17 36
17 37
17 47
17 73
17 84
18 19
18 43
18 65
19 43
19 65
20 22
20 25
20 27
20 29
20 31
20 33
20 40
20 45
20 53
20 68
20 71
20 82
21 23
21 24
21 28
21 30
21 37
21 62
21 66
21 70
21 72
21 76
22 23
22 25
22 27
22 29
22 33
22 35
22 36
22 37
22 40
22 68
22 71
22 73
22 84
23 24
23 28
23 30
23 64
23 73
23 84
24 28
24 30
24 64
25 27
25 29
25 40
26 58
26 71
27 29
27 38
27 40
28 30
28 32
28 43
29 35
29 36
29 37
29 40
30 32
30 43
30 64
31 33
31 40
31 45
31 53
31 82
32 34
32 43
32 57
32 58
33 40
33 45
33 53
33 68
33 71
33 82
34 57
34 58
35 36
35 37
35 74
35 79
36 37
36 61
37 62
37 74
37 79
38 59
38 60
38 61
38 76
39 41
39 42
39 44
39 46
39 47
39 52
39 62
39 66
40 43
40 45
40 53
40 55
40 82
41 45
41 48
41 50
41 51
42 44
42 46
42 47
42 52
42 62
42 66
43 49
43 55
43 59
43 65
43 70
44 46
44 47
44 52
44 62
44 66
45 48
45 50
45 51
45 53
45 56
45 57
45 58
45 77
45 82
46 47
46 52
46 62
46 66
47 52
47 62
47 66
48 50
48 51
48 53
48 56
48 57
48 58
48 77
49 55
49 59
49 70
50 51
50 53
50 56
50 77
51 54
51 60
51 80
52 55
52 59
52 62
52 66
52 70
52 84
53 56
53 57
53 58
53 77
53 82
54 60
54 63
54 65
54 67
54 68
54 71
54 75
54 80
55 59
55 62
55 66
55 70
55 84
56 77
57 58
57 77
58 71
58 77
59 60
59 61
59 62
59 66
59 70
59 84
60 61
60 80
61 76
61 78
61 79
61 81
62 66
62 70
62 72
62 76
62 84
63 65
63 67
63 68
63 71
64 69
64 78
64 82
64 83
65 67
65 68
65 71
65 75
66 70
66 72
66 76
66 84
67 68
67 71
67 75
68 71
68 75
69 73
69 74
69 78
69 82
69 83
70 72
70 76
70 84
71 75
72 76
73 74
73 77
73 80
73 84
74 79
77 80
77 84
78 79
78 81
78 82
78 83
79 81
80 84
82 83
0 1
2
3
4
5 6
7
8
9
10 11
12 13
14
15
16 17
18
19 20
21
22 23
24
25
26
27
28
29 30
31
32
33 34
35
36 37
38
39 40
41
42
43 44
45 46
47 48
49
50
51
52 53
54
55
56
57
58 59
60 61
62
63
64
65 66
67
68
69
70 71
72 73
74 75
76
77 78
79
80
81
82
83
84
